152
0 1 2 3 4 5 6 7 14 17 22 23 30 34 39 52 56 76 83 87 89 123 147 195 228 312 451 548 565 717 723 770 808 57 364 394 569 571 691 792 832 884 13 24 84 114 450 506 577 743 790 895 1112 1143 128 425 426 613 630 675 968 1130 150 192 318 334 505 796 922 943 1020 222 417 558 683 687 786 1159 244 250 380 388 397 27 50 174 176 202 245 420 421 459 479 693 851 906 100 178 293 308 382 422 437 482 732 932 65 73 96 124 266 379 428 463 537 553 563 1039 18 82 121 200 207 254 265 300 429 457 473 581 589 615 714 934 1135 36 117 129 131 173 230 232 741 852 12 32 53 145 160 181 198 215
